CPXPARAM_Read_DataCheck                          1
Tried aggregator 1 time.
LP Presolve eliminated 1 rows and 1 columns.
Aggregator did 7 substitutions.
All rows and columns eliminated.
Presolve time = 0.00 sec. (0.00 ticks)
CPXPARAM_Read_DataCheck                          1
Tried aggregator 1 time.
LP Presolve eliminated 1 rows and 1 columns.
Aggregator did 5 substitutions.
All rows and columns eliminated.
Presolve time = 0.00 sec. (0.00 ticks)
CPXPARAM_Read_DataCheck                          1
Tried aggregator 1 time.
LP Presolve eliminated 2 rows and 2 columns.
Aggregator did 8 substitutions.
All rows and columns eliminated.
Presolve time = 0.00 sec. (0.01 ticks)
CPXPARAM_Read_DataCheck                          1
Tried aggregator 1 time.
LP Presolve eliminated 2 rows and 2 columns.
Aggregator did 6 substitutions.
All rows and columns eliminated.
Presolve time = 0.00 sec. (0.01 ticks)
CPXPARAM_Read_DataCheck                          1
Tried aggregator 1 time.
LP Presolve eliminated 1 rows and 2 columns.
Aggregator did 5 substitutions.
All rows and columns eliminated.
Presolve time = 0.00 sec. (0.00 ticks)
CPXPARAM_Read_DataCheck                          1
Tried aggregator 1 time.
LP Presolve eliminated 1 rows and 2 columns.
Aggregator did 3 substitutions.
All rows and columns eliminated.
Presolve time = 0.00 sec. (0.00 ticks)
CPXPARAM_Read_DataCheck                          1
Tried aggregator 1 time.
LP Presolve eliminated 1 rows and 2 columns.
Aggregator did 7 substitutions.
All rows and columns eliminated.
Presolve time = 0.00 sec. (0.00 ticks)
CPXPARAM_Read_DataCheck                          1
Tried aggregator 1 time.
LP Presolve eliminated 1 rows and 2 columns.
Aggregator did 5 substitutions.
All rows and columns eliminated.
Presolve time = 0.00 sec. (0.00 ticks)
CPXPARAM_Read_DataCheck                          1
Tried aggregator 1 time.
LP Presolve eliminated 1 rows and 1 columns.
Aggregator did 7 substitutions.
All rows and columns eliminated.
Presolve time = 0.00 sec. (0.01 ticks)
CPXPARAM_Read_DataCheck                          1
Tried aggregator 1 time.
LP Presolve eliminated 1 rows and 1 columns.
Aggregator did 5 substitutions.
All rows and columns eliminated.
Presolve time = 0.00 sec. (0.00 ticks)
CPXPARAM_Read_DataCheck                          1
Tried aggregator 1 time.
LP Presolve eliminated 1 rows and 1 columns.
Aggregator did 9 substitutions.
All rows and columns eliminated.
Presolve time = 0.00 sec. (0.01 ticks)
CPXPARAM_Read_DataCheck                          1
Tried aggregator 1 time.
LP Presolve eliminated 1 rows and 1 columns.
Aggregator did 7 substitutions.
All rows and columns eliminated.
Presolve time = 0.00 sec. (0.01 ticks)
CPXPARAM_Read_DataCheck                          1
Tried aggregator 1 time.
LP Presolve eliminated 1 rows and 2 columns.
Aggregator did 5 substitutions.
All rows and columns eliminated.
Presolve time = 0.00 sec. (0.00 ticks)
CPXPARAM_Read_DataCheck                          1
Tried aggregator 1 time.
LP Presolve eliminated 1 rows and 2 columns.
Aggregator did 3 substitutions.
All rows and columns eliminated.
Presolve time = 0.00 sec. (0.00 ticks)
CPXPARAM_Read_DataCheck                          1
Tried aggregator 1 time.
LP Presolve eliminated 1 rows and 2 columns.
Aggregator did 7 substitutions.
All rows and columns eliminated.
Presolve time = 0.00 sec. (0.00 ticks)
CPXPARAM_Read_DataCheck                          1
Tried aggregator 1 time.
LP Presolve eliminated 1 rows and 2 columns.
Aggregator did 5 substitutions.
All rows and columns eliminated.
Presolve time = 0.00 sec. (0.00 ticks)
CPXPARAM_Read_DataCheck                          1
Tried aggregator 1 time.
LP Presolve eliminated 1 rows and 1 columns.
Aggregator did 7 substitutions.
All rows and columns eliminated.
Presolve time = 0.00 sec. (0.01 ticks)
CPXPARAM_Read_DataCheck                          1
Tried aggregator 1 time.
LP Presolve eliminated 1 rows and 1 columns.
Aggregator did 5 substitutions.
All rows and columns eliminated.
Presolve time = 0.00 sec. (0.00 ticks)
CPXPARAM_Read_DataCheck                          1
Tried aggregator 1 time.
LP Presolve eliminated 1 rows and 1 columns.
Aggregator did 9 substitutions.
All rows and columns eliminated.
Presolve time = 0.00 sec. (0.01 ticks)
CPXPARAM_Read_DataCheck                          1
Tried aggregator 1 time.
LP Presolve eliminated 1 rows and 1 columns.
Aggregator did 7 substitutions.
All rows and columns eliminated.
Presolve time = 0.00 sec. (0.01 ticks)
CPXPARAM_Read_DataCheck                          1
Tried aggregator 1 time.
LP Presolve eliminated 1 rows and 2 columns.
Aggregator did 5 substitutions.
All rows and columns eliminated.
Presolve time = 0.00 sec. (0.00 ticks)
CPXPARAM_Read_DataCheck                          1
Tried aggregator 1 time.
LP Presolve eliminated 1 rows and 2 columns.
Aggregator did 3 substitutions.
All rows and columns eliminated.
Presolve time = 0.00 sec. (0.00 ticks)
CPXPARAM_Read_DataCheck                          1
Tried aggregator 1 time.
LP Presolve eliminated 1 rows and 2 columns.
Aggregator did 7 substitutions.
All rows and columns eliminated.
Presolve time = 0.00 sec. (0.00 ticks)
CPXPARAM_Read_DataCheck                          1
Tried aggregator 1 time.
LP Presolve eliminated 1 rows and 2 columns.
Aggregator did 5 substitutions.
All rows and columns eliminated.
Presolve time = 0.00 sec. (0.00 ticks)
CPXPARAM_Read_DataCheck                          1
Tried aggregator 1 time.
LP Presolve eliminated 1 rows and 1 columns.
Aggregator did 7 substitutions.
All rows and columns eliminated.
Presolve time = 0.00 sec. (0.01 ticks)
CPXPARAM_Read_DataCheck                          1
Tried aggregator 1 time.
LP Presolve eliminated 1 rows and 1 columns.
Aggregator did 5 substitutions.
All rows and columns eliminated.
Presolve time = 0.00 sec. (0.00 ticks)
CPXPARAM_Read_DataCheck                          1
Tried aggregator 1 time.
LP Presolve eliminated 1 rows and 1 columns.
Aggregator did 9 substitutions.
All rows and columns eliminated.
Presolve time = 0.00 sec. (0.01 ticks)
CPXPARAM_Read_DataCheck                          1
Tried aggregator 1 time.
LP Presolve eliminated 1 rows and 1 columns.
Aggregator did 7 substitutions.
All rows and columns eliminated.
Presolve time = 0.00 sec. (0.01 ticks)
CPXPARAM_Read_DataCheck                          1
Tried aggregator 1 time.
LP Presolve eliminated 1 rows and 2 columns.
Aggregator did 5 substitutions.
All rows and columns eliminated.
Presolve time = 0.00 sec. (0.00 ticks)
CPXPARAM_Read_DataCheck                          1
Tried aggregator 1 time.
LP Presolve eliminated 1 rows and 2 columns.
Aggregator did 3 substitutions.
All rows and columns eliminated.
Presolve time = 0.00 sec. (0.00 ticks)
CPXPARAM_Read_DataCheck                          1
Tried aggregator 1 time.
LP Presolve eliminated 1 rows and 2 columns.
Aggregator did 7 substitutions.
All rows and columns eliminated.
Presolve time = 0.00 sec. (0.00 ticks)
CPXPARAM_Read_DataCheck                          1
Tried aggregator 1 time.
LP Presolve eliminated 1 rows and 2 columns.
Aggregator did 5 substitutions.
All rows and columns eliminated.
Presolve time = 0.00 sec. (0.00 ticks)
CPXPARAM_Read_DataCheck                          1
Tried aggregator 1 time.
LP Presolve eliminated 1 rows and 1 columns.
Aggregator did 7 substitutions.
All rows and columns eliminated.
Presolve time = 0.00 sec. (0.01 ticks)
CPXPARAM_Read_DataCheck                          1
Tried aggregator 1 time.
LP Presolve eliminated 1 rows and 1 columns.
Aggregator did 5 substitutions.
All rows and columns eliminated.
Presolve time = 0.00 sec. (0.00 ticks)
CPXPARAM_Read_DataCheck                          1
Tried aggregator 1 time.
LP Presolve eliminated 1 rows and 1 columns.
Aggregator did 9 substitutions.
All rows and columns eliminated.
Presolve time = 0.00 sec. (0.01 ticks)
CPXPARAM_Read_DataCheck                          1
Tried aggregator 1 time.
LP Presolve eliminated 1 rows and 1 columns.
Aggregator did 7 substitutions.
All rows and columns eliminated.
Presolve time = 0.00 sec. (0.01 ticks)
CPXPARAM_Read_DataCheck                          1
Tried aggregator 1 time.
LP Presolve eliminated 1 rows and 2 columns.
Aggregator did 5 substitutions.
All rows and columns eliminated.
Presolve time = 0.00 sec. (0.00 ticks)
CPXPARAM_Read_DataCheck                          1
Tried aggregator 1 time.
LP Presolve eliminated 1 rows and 2 columns.
Aggregator did 3 substitutions.
All rows and columns eliminated.
Presolve time = 0.00 sec. (0.00 ticks)
CPXPARAM_Read_DataCheck                          1
Tried aggregator 1 time.
LP Presolve eliminated 1 rows and 2 columns.
Aggregator did 7 substitutions.
All rows and columns eliminated.
Presolve time = 0.00 sec. (0.00 ticks)
CPXPARAM_Read_DataCheck                          1
Tried aggregator 1 time.
LP Presolve eliminated 1 rows and 2 columns.
Aggregator did 5 substitutions.
All rows and columns eliminated.
Presolve time = 0.00 sec. (0.00 ticks)
CPXPARAM_Read_DataCheck                          1
Tried aggregator 1 time.
LP Presolve eliminated 1 rows and 1 columns.
Aggregator did 7 substitutions.
All rows and columns eliminated.
Presolve time = 0.00 sec. (0.01 ticks)
CPXPARAM_Read_DataCheck                          1
Tried aggregator 1 time.
LP Presolve eliminated 1 rows and 1 columns.
Aggregator did 5 substitutions.
All rows and columns eliminated.
Presolve time = 0.00 sec. (0.00 ticks)
CPXPARAM_Read_DataCheck                          1
Tried aggregator 1 time.
LP Presolve eliminated 1 rows and 1 columns.
Aggregator did 9 substitutions.
All rows and columns eliminated.
Presolve time = 0.00 sec. (0.01 ticks)
CPXPARAM_Read_DataCheck                          1
Tried aggregator 1 time.
LP Presolve eliminated 1 rows and 1 columns.
Aggregator did 7 substitutions.
All rows and columns eliminated.
Presolve time = 0.00 sec. (0.01 ticks)
CPXPARAM_Read_DataCheck                          1
Tried aggregator 1 time.
LP Presolve eliminated 1 rows and 2 columns.
Aggregator did 5 substitutions.
All rows and columns eliminated.
Presolve time = 0.00 sec. (0.00 ticks)
CPXPARAM_Read_DataCheck                          1
Tried aggregator 1 time.
LP Presolve eliminated 1 rows and 2 columns.
Aggregator did 3 substitutions.
All rows and columns eliminated.
Presolve time = 0.00 sec. (0.00 ticks)
CPXPARAM_Read_DataCheck                          1
Tried aggregator 1 time.
LP Presolve eliminated 1 rows and 2 columns.
Aggregator did 7 substitutions.
All rows and columns eliminated.
Presolve time = 0.00 sec. (0.00 ticks)
CPXPARAM_Read_DataCheck                          1
Tried aggregator 1 time.
LP Presolve eliminated 1 rows and 2 columns.
Aggregator did 5 substitutions.
All rows and columns eliminated.
Presolve time = 0.00 sec. (0.00 ticks)
CPXPARAM_Read_DataCheck                          1
Tried aggregator 1 time.
LP Presolve eliminated 1 rows and 1 columns.
Aggregator did 7 substitutions.
All rows and columns eliminated.
Presolve time = 0.00 sec. (0.01 ticks)
CPXPARAM_Read_DataCheck                          1
Tried aggregator 1 time.
LP Presolve eliminated 1 rows and 1 columns.
Aggregator did 5 substitutions.
All rows and columns eliminated.
Presolve time = 0.00 sec. (0.00 ticks)
CPXPARAM_Read_DataCheck                          1
Tried aggregator 1 time.
LP Presolve eliminated 1 rows and 1 columns.
Aggregator did 9 substitutions.
All rows and columns eliminated.
Presolve time = 0.00 sec. (0.01 ticks)
CPXPARAM_Read_DataCheck                          1
Tried aggregator 1 time.
LP Presolve eliminated 1 rows and 1 columns.
Aggregator did 7 substitutions.
All rows and columns eliminated.
Presolve time = 0.00 sec. (0.01 ticks)
CPXPARAM_Read_DataCheck                          1
Tried aggregator 1 time.
LP Presolve eliminated 1 rows and 2 columns.
Aggregator did 5 substitutions.
All rows and columns eliminated.
Presolve time = 0.00 sec. (0.00 ticks)
CPXPARAM_Read_DataCheck                          1
Tried aggregator 1 time.
LP Presolve eliminated 1 rows and 2 columns.
Aggregator did 3 substitutions.
All rows and columns eliminated.
Presolve time = 0.00 sec. (0.00 ticks)
CPXPARAM_Read_DataCheck                          1
Tried aggregator 1 time.
LP Presolve eliminated 1 rows and 2 columns.
Aggregator did 7 substitutions.
All rows and columns eliminated.
Presolve time = 0.00 sec. (0.00 ticks)
CPXPARAM_Read_DataCheck                          1
Tried aggregator 1 time.
LP Presolve eliminated 1 rows and 2 columns.
Aggregator did 5 substitutions.
All rows and columns eliminated.
Presolve time = 0.00 sec. (0.00 ticks)
CPXPARAM_Read_DataCheck                          1
Tried aggregator 1 time.
LP Presolve eliminated 1 rows and 1 columns.
Aggregator did 7 substitutions.
All rows and columns eliminated.
Presolve time = 0.00 sec. (0.01 ticks)
CPXPARAM_Read_DataCheck                          1
Tried aggregator 1 time.
LP Presolve eliminated 1 rows and 1 columns.
Aggregator did 5 substitutions.
All rows and columns eliminated.
Presolve time = 0.00 sec. (0.00 ticks)
CPXPARAM_Read_DataCheck                          1
Tried aggregator 1 time.
LP Presolve eliminated 1 rows and 1 columns.
Aggregator did 9 substitutions.
All rows and columns eliminated.
Presolve time = 0.00 sec. (0.01 ticks)
CPXPARAM_Read_DataCheck                          1
Tried aggregator 1 time.
LP Presolve eliminated 1 rows and 1 columns.
Aggregator did 7 substitutions.
All rows and columns eliminated.
Presolve time = 0.00 sec. (0.01 ticks)
CPXPARAM_Read_DataCheck                          1
Tried aggregator 1 time.
LP Presolve eliminated 1 rows and 2 columns.
Aggregator did 5 substitutions.
All rows and columns eliminated.
Presolve time = 0.00 sec. (0.00 ticks)
CPXPARAM_Read_DataCheck                          1
Tried aggregator 1 time.
LP Presolve eliminated 1 rows and 2 columns.
Aggregator did 3 substitutions.
All rows and columns eliminated.
Presolve time = 0.00 sec. (0.00 ticks)
CPXPARAM_Read_DataCheck                          1
Tried aggregator 1 time.
LP Presolve eliminated 1 rows and 2 columns.
Aggregator did 7 substitutions.
All rows and columns eliminated.
Presolve time = 0.00 sec. (0.00 ticks)
CPXPARAM_Read_DataCheck                          1
Tried aggregator 1 time.
LP Presolve eliminated 1 rows and 2 columns.
Aggregator did 5 substitutions.
All rows and columns eliminated.
Presolve time = 0.00 sec. (0.00 ticks)
CPXPARAM_Read_DataCheck                          1
Tried aggregator 1 time.
LP Presolve eliminated 1 rows and 1 columns.
Aggregator did 7 substitutions.
All rows and columns eliminated.
Presolve time = 0.00 sec. (0.01 ticks)
CPXPARAM_Read_DataCheck                          1
Tried aggregator 1 time.
LP Presolve eliminated 1 rows and 1 columns.
Aggregator did 5 substitutions.
All rows and columns eliminated.
Presolve time = 0.00 sec. (0.00 ticks)
CPXPARAM_Read_DataCheck                          1
Tried aggregator 1 time.
LP Presolve eliminated 1 rows and 1 columns.
Aggregator did 9 substitutions.
All rows and columns eliminated.
Presolve time = 0.00 sec. (0.01 ticks)
CPXPARAM_Read_DataCheck                          1
Tried aggregator 1 time.
LP Presolve eliminated 1 rows and 1 columns.
Aggregator did 7 substitutions.
All rows and columns eliminated.
Presolve time = 0.00 sec. (0.01 ticks)
CPXPARAM_Read_DataCheck                          1
Tried aggregator 1 time.
LP Presolve eliminated 1 rows and 2 columns.
Aggregator did 5 substitutions.
All rows and columns eliminated.
Presolve time = 0.00 sec. (0.00 ticks)
CPXPARAM_Read_DataCheck                          1
Tried aggregator 1 time.
LP Presolve eliminated 1 rows and 2 columns.
Aggregator did 3 substitutions.
All rows and columns eliminated.
Presolve time = 0.00 sec. (0.00 ticks)
CPXPARAM_Read_DataCheck                          1
Tried aggregator 1 time.
LP Presolve eliminated 1 rows and 2 columns.
Aggregator did 7 substitutions.
All rows and columns eliminated.
Presolve time = 0.00 sec. (0.00 ticks)
CPXPARAM_Read_DataCheck                          1
Tried aggregator 1 time.
LP Presolve eliminated 1 rows and 2 columns.
Aggregator did 5 substitutions.
All rows and columns eliminated.
Presolve time = 0.00 sec. (0.00 ticks)
CPXPARAM_Read_DataCheck                          1
Tried aggregator 1 time.
LP Presolve eliminated 1 rows and 1 columns.
Aggregator did 7 substitutions.
All rows and columns eliminated.
Presolve time = 0.00 sec. (0.01 ticks)
CPXPARAM_Read_DataCheck                          1
Tried aggregator 1 time.
LP Presolve eliminated 1 rows and 1 columns.
Aggregator did 5 substitutions.
All rows and columns eliminated.
Presolve time = 0.00 sec. (0.00 ticks)
CPXPARAM_Read_DataCheck                          1
Tried aggregator 1 time.
LP Presolve eliminated 1 rows and 1 columns.
Aggregator did 9 substitutions.
All rows and columns eliminated.
Presolve time = 0.00 sec. (0.01 ticks)
CPXPARAM_Read_DataCheck                          1
Tried aggregator 1 time.
LP Presolve eliminated 1 rows and 1 columns.
Aggregator did 7 substitutions.
All rows and columns eliminated.
Presolve time = 0.00 sec. (0.01 ticks)
CPXPARAM_Read_DataCheck                          1
Tried aggregator 1 time.
LP Presolve eliminated 1 rows and 2 columns.
Aggregator did 5 substitutions.
All rows and columns eliminated.
Presolve time = 0.00 sec. (0.00 ticks)
CPXPARAM_Read_DataCheck                          1
Tried aggregator 1 time.
LP Presolve eliminated 1 rows and 2 columns.
Aggregator did 3 substitutions.
All rows and columns eliminated.
Presolve time = 0.00 sec. (0.00 ticks)
CPXPARAM_Read_DataCheck                          1
Tried aggregator 1 time.
LP Presolve eliminated 1 rows and 2 columns.
Aggregator did 7 substitutions.
All rows and columns eliminated.
Presolve time = 0.00 sec. (0.00 ticks)
CPXPARAM_Read_DataCheck                          1
Tried aggregator 1 time.
LP Presolve eliminated 1 rows and 2 columns.
Aggregator did 5 substitutions.
All rows and columns eliminated.
Presolve time = 0.00 sec. (0.00 ticks)
CPXPARAM_Read_DataCheck                          1
Tried aggregator 1 time.
LP Presolve eliminated 1 rows and 1 columns.
Aggregator did 7 substitutions.
All rows and columns eliminated.
Presolve time = 0.00 sec. (0.01 ticks)
CPXPARAM_Read_DataCheck                          1
Tried aggregator 1 time.
LP Presolve eliminated 1 rows and 1 columns.
Aggregator did 5 substitutions.
All rows and columns eliminated.
Presolve time = 0.00 sec. (0.00 ticks)
CPXPARAM_Read_DataCheck                          1
Tried aggregator 1 time.
LP Presolve eliminated 1 rows and 1 columns.
Aggregator did 9 substitutions.
All rows and columns eliminated.
Presolve time = 0.00 sec. (0.01 ticks)
CPXPARAM_Read_DataCheck                          1
Tried aggregator 1 time.
LP Presolve eliminated 1 rows and 1 columns.
Aggregator did 7 substitutions.
All rows and columns eliminated.
Presolve time = 0.00 sec. (0.01 ticks)
CPXPARAM_Read_DataCheck                          1
Tried aggregator 1 time.
LP Presolve eliminated 1 rows and 2 columns.
Aggregator did 5 substitutions.
All rows and columns eliminated.
Presolve time = 0.00 sec. (0.00 ticks)
CPXPARAM_Read_DataCheck                          1
Tried aggregator 1 time.
LP Presolve eliminated 1 rows and 2 columns.
Aggregator did 3 substitutions.
All rows and columns eliminated.
Presolve time = 0.00 sec. (0.00 ticks)
CPXPARAM_Read_DataCheck                          1
Tried aggregator 1 time.
LP Presolve eliminated 1 rows and 2 columns.
Aggregator did 7 substitutions.
All rows and columns eliminated.
Presolve time = 0.00 sec. (0.00 ticks)
CPXPARAM_Read_DataCheck                          1
Tried aggregator 1 time.
LP Presolve eliminated 1 rows and 2 columns.
Aggregator did 5 substitutions.
All rows and columns eliminated.
Presolve time = 0.00 sec. (0.00 ticks)
=======counter========== 11
I 4
cs 5
csLevel 2
costSys 18.328218846810305
lastCostSys 18.328218846810305
costAll [355.2, 320.59999999999997, 365.6, 334.6, 350.59999999999997, 352.90000000000003, 314.3, 402.5, 319.6, 332.29999999999995, 350.7, 359.09999999999997, 322.6, 349.79999999999995, 354.90000000000003, 277.9, 334.9, 285.7, 358.5, 331.9, 292.5, 394.99999999999994, 325.0, 285.5, 277.2, 344.2, 268.5, 320.29999999999995, 300.8, 288.5, 245.70000000000002, 277.20000000000005, 216.4, 258.4, 356.29999999999995, 319.2, 422.0, 409.90000000000003, 293.0, 257.0, 241.5, 326.0, 323.29999999999995, 373.6, 332.7, 271.9, 306.8, 353.69999999999993, 319.6, 427.5]
mean 324.068
variance 2118.5013759999997
